QBPP_HJ*_45_025_06_3
45 352 1
10 5 44 7 15 28 39 27 19 17 20 24 33 24 23 26 17 7 2 42 47 35 4 13 19 7 16 48 35 3 43 40 11 2 15 18 19 50 35 47 3 50 16 40 10
    0  -37    0    0    0    0    0    0    0    0    0    0    0    0  -32    0    0    0    0    0  -24   -4    0    0   36    0    0    0    0    0   47    0    0    0    0    0    0    0    0    0   -5   14    0   46    0
  -37    0    0    0    0   17    0   27    0    0    0  -31    0    0    0    0    0    0    0    0    0    0  -25    0    0    0    2    0    0    0    0    0    0    0    0    0    0    0   20   -5    0    0    0    0    0
    0    0    0    0    0    0    0    0    0   32    0    0    0    0    0    0    0    0    0    0    0    0    0    0   20    0    0    0    0  -11    0    0    0    0    0    0    0    0   44   36    0  -39  -41    0    0
    0    0    0    0    0    0    0    0    0   39    0    0    0    0    0    0    7   -1  -39    0    0    0   23    0    0    0    0    0    0   39    0  -10   37    0    0    0    0    1    0   16    0  -17    0    0    0
    0    0    0    0    0    0    0    4    0    0    8    0  -29    0  -47  -27    0   37    0    0   50    0   40   18    0    0    0    0    0   -2    0    0    0    0    0    0  -45    0    0   29   35   33    0  -23    0
    0   17    0    0    0    0  -46    0    0    0    0    0  -33    0   39  -48  -35    0   17    0    0    0    0    0    0  -48    0    0    0    0    0    0    0    0    0   40    0    0   39    0    0    0    0    0    0
    0    0    0    0    0  -46    0    0    0    0    0    0    0    0    0   35    0    0    4    0    0    0    0    0   -4    0    0    0    0    0    0    0    0    1    0    0    0    0  -47    0    0    0    1   36    0
    0   27    0    0    4    0    0    0   14    0   16    0    0    0    0    0   17    0    0    0    0    0  -42    0    0    0    0    0   10  -50    0  -28    0    0    0   46    0    0    0    0    0    2  -27  -33    0
    0    0    0    0    0    0    0   14    0    0    0   23    0    0    0    0    0  -42    0    0    0    0    0    0    0    0  -35    0    0    0    0    0    0   47   18    7  -10    0    0    0    0    0  -21    0  -34
    0    0   32   39    0    0    0    0    0    0    0    0    4    0  -32    0    0    0    0    0   28    0    5   21    0    0    0    0    0    0    0    0    0    0    0    0    0    0  -14    0    0    0    0    0  -25
    0    0    0    0    8    0    0   16    0    0    0    0    0  -33    0    0    0    0  -22   30    0    0    0    0   30   14    0    0    0    0    0    0    0    0    0   21    0    0    0    0    0   28    0    0    0
    0  -31    0    0    0    0    0    0   23    0    0    0  -38    0    0    0    2    0    0    0    0  -36    0   41    0  -43  -11    0    0  -35  -42    0    0  -21  -49  -26    0    0    0    0    0    0    0   41    0
    0    0    0    0  -29  -33    0    0    0    4    0  -38    0    0    0    0    0  -39    0    0    0   37   50  -17  -41    0  -30    0   45    0    0  -29    0    0    0    0    0    0    0    0    0    0    0    0   16
    0    0    0    0    0    0    0    0    0    0  -33    0    0    0    0   19    0    0   23    9    0    0    0   24    0  -49    0    0    0    0    0  -10    0    0    0    0    6    0  -38    0    0    0    0    0    0
  -32    0    0    0  -47   39    0    0    0  -32    0    0    0    0    0   25    0    0  -16    0  -26    0   32    0    0    0   43    0    0    0    0  -14    0    0    0  -22    0    0    0    0    0    0    0    0    0
    0    0    0    0  -27  -48   35    0    0    0    0    0    0   19   25    0    0    0    0    0    0    8  -38  -15   20  -43    0    0  -44  -28    0    0    0    0    0    0  -48    0    0    0    0    0  -50   33    0
    0    0    0    7    0  -35    0   17    0    0    0    2    0    0    0    0    0   11   -2    0    0  -26    0    0    0    0    0  -25    0    0    0    0    0    0    0    3   30    0    0    0  -12   41    0    0   27
    0    0    0   -1   37    0    0    0  -42    0    0    0  -39    0    0    0   11    0    0    0    0    0    0    0   25    0    0    0    0   -8    0  -27    0   36    0    0  -31   28   44  -49    0    0   30    0    0
    0    0    0  -39    0   17    4    0    0    0  -22    0    0   23  -16    0   -2    0    0    0  -22    0    0    0    0    0    0    0    0   16    0    0    0    0   47    0    0    0    0    0    0    0    0    0    0
    0    0    0    0    0    0    0    0    0    0   30    0    0    9    0    0    0    0    0    0    0    0   -7    0    0    0  -42    0    0   20    0    0    0   23    0    8    0    2    0    0    0    0    0    0    0
  -24    0    0    0   50    0    0    0    0   28    0    0    0    0  -26    0    0    0  -22    0    0    0    0    0   38    0    0  -38    0    0    0    0    0    0  -31    0   38    0    7   -4    9    0  -39   36    0
   -4    0    0    0    0    0    0    0    0    0    0  -36   37    0    0    8  -26    0    0    0    0    0    0    0   18    0    0    0    0    0    0    0  -39    0    0    0  -12    0    0   13   46    0    0    0    0
    0  -25    0   23   40    0    0  -42    0    5    0    0   50    0   32  -38    0    0    0   -7    0    0    0    0    0    4    0   12    0    0  -17    0    0    0    0  -31    0    0    0    0    0    0   27  -10    0
    0    0    0    0   18    0    0    0    0   21    0   41  -17   24    0  -15    0    0    0    0    0    0    0    0   25    0    0    0    0    0    0    0    0   17    0    0    0    0    0    0    0    0    0    0    0
   36    0   20    0    0    0   -4    0    0    0   30    0  -41    0    0   20    0   25    0    0   38   18    0   25    0    0    0    0    0    0    0    0   -4    0    0   28   41    0   13   26    0   39    0    0   30
    0    0    0    0    0  -48    0    0    0    0   14  -43    0  -49    0  -43    0    0    0    0    0    0    4    0    0    0    0    0    0    0  -24    0   -2    0   -4    0    0    0    0    0    0   -6  -23    0    0
    0    2    0    0    0    0    0    0  -35    0    0  -11  -30    0   43    0    0    0    0  -42    0    0    0    0    0    0    0  -25    0    0    0    0    0    0    0  -15    0    0  -26    0    0    0  -16  -27    0
    0    0    0    0    0    0    0    0    0    0    0    0    0    0    0    0  -25    0    0    0  -38    0   12    0    0    0  -25    0    0    0    0    0    0    0    0    0    0    0    0    0    0    0    0    0    0
    0    0    0    0    0    0    0   10    0    0    0    0   45    0    0  -44    0    0    0    0    0    0    0    0    0    0    0    0    0    0    0  -37    0    0    0    0    0    0    0    0    0    0    0    1    0
    0    0  -11   39   -2    0    0  -50    0    0    0  -35    0    0    0  -28    0   -8   16   20    0    0    0    0    0    0    0    0    0    0    0    0    0   49    0    0    0    0    0    0    0    0    0   29    0
   47    0    0    0    0    0    0    0    0    0    0  -42    0    0    0    0    0    0    0    0    0    0  -17    0    0  -24    0    0    0    0    0    0    0    0    0    0    0    0    3    0    0    0    0   19    3
    0    0    0  -10    0    0    0  -28    0    0    0    0  -29  -10  -14    0    0  -27    0    0    0    0    0    0    0    0    0    0  -37    0    0    0  -50    0    0    0   36    0    0    0    0    6  -35    0    0
    0    0    0   37    0    0    0    0    0    0    0    0    0    0    0    0    0    0    0    0    0  -39    0    0   -4   -2    0    0    0    0    0  -50    0    0    0  -27  -31  -25    0    0    0    0    0    0  -18
    0    0    0    0    0    0    1    0   47    0    0  -21    0    0    0    0    0   36    0   23    0    0    0   17    0    0    0    0    0   49    0    0    0    0    0   28   15    0    0    0    0  -23    0    0    0
    0    0    0    0    0    0    0    0   18    0    0  -49    0    0    0    0    0    0   47    0  -31    0    0    0    0   -4    0    0    0    0    0    0    0    0    0    0    0    0    0    0    0    0    0    0    0
    0    0    0    0    0   40    0   46    7    0   21  -26    0    0  -22    0    3    0    0    8    0    0  -31    0   28    0  -15    0    0    0    0    0  -27   28    0    0    0    0   -4    0    0    0    0    0    0
    0    0    0    0  -45    0    0    0  -10    0    0    0    0    6    0  -48   30  -31    0    0   38  -12    0    0   41    0    0    0    0    0    0   36  -31   15    0    0    0    0    0   21    0  -42  -23    0    0
    0    0    0    1    0    0    0    0    0    0    0    0    0    0    0    0    0   28    0    2    0    0    0    0    0    0    0    0    0    0    0    0  -25    0    0    0    0    0    0    0    0    0    0    0    0
    0   20   44    0    0   39  -47    0    0  -14    0    0    0  -38    0    0    0   44    0    0    7    0    0    0   13    0  -26    0    0    0    3    0    0    0    0   -4    0    0    0    0    0    0   -2  -20  -40
    0   -5   36   16   29    0    0    0    0    0    0    0    0    0    0    0    0  -49    0    0   -4   13    0    0   26    0    0    0    0    0    0    0    0    0    0    0   21    0    0    0   38    0    0    0  -23
   -5    0    0    0   35    0    0    0    0    0    0    0    0    0    0    0  -12    0    0    0    9   46    0    0    0    0    0    0    0    0    0    0    0    0    0    0    0    0    0   38    0   10   35    0   36
   14    0  -39  -17   33    0    0    2    0    0   28    0    0    0    0    0   41    0    0    0    0    0    0    0   39   -6    0    0    0    0    0    6    0  -23    0    0  -42    0    0    0   10    0   32    0    0
    0    0  -41    0    0    0    1  -27  -21    0    0    0    0    0    0  -50    0   30    0    0  -39    0   27    0    0  -23  -16    0    0    0    0  -35    0    0    0    0  -23    0   -2    0   35   32    0    0    0
   46    0    0    0  -23    0   36  -33    0    0    0   41    0    0    0   33    0    0    0    0   36    0  -10    0    0    0  -27    0    1   29   19    0    0    0    0    0    0    0  -20    0    0    0    0    0    0
    0    0    0    0    0    0    0    0  -34  -25    0    0   16    0    0    0   27    0    0    0    0    0    0    0   30    0    0    0    0    0    3    0  -18    0    0    0    0    0  -40  -23   36    0    0    0    0
